(set-info :smt-lib-version 2.6)
(set-logic QF_SLIA)
(set-info :source |
Generated by: Dmitry Blotsky1, Federico Mora, Murphy Berzish, Yunhui Zheng, Ifaz Kabir, Vijay Ganesh, Zhengyang Lu
Generated on: 2018-01-24
Generator: StringFuzz
Application: Evaluate string solvers
Target solver: Z3str3, CVC4, Z3str2, Norn
Publications: Blotsky, D., Mora, F., Berzish, M., Zheng, Y., Kabir, I., & Ganesh, V. (2018). Stringfuzz: A fuzzer for string solvers. In CAV 2018.
Description: transformed by StringFuzz, a modular string and regex fuzzer, from an industrial benchmark
|)
(set-info :license "https://creativecommons.org/licenses/by/4.0/")
(set-info :category "random")
(set-info :status unknown)

(declare-const x String)
(assert (= x "'\x0c'v{ed+ys'\t'U{4qeux'\x0c'-Ul,3W'\x0b'cd7n}+ax9@up!'\n'c'\n'r$3[:bF'\n'cnQ.'\t']Md:{Qp='\x0c'%o'\x0b'cBa,a,cw|'\x0c'JkDSesp({fZpa%{Pd>*]Gh~J'\r'xc"))
(assert (str.in_re x (re.* (re.union (str.to_re "fla{4qccb&") (str.to_re ".@,f_njdc")))))
(check-sat)

(exit)
